Code/Rooms/2nwalls18-8.dzn
n = 18;

R =
[|0,2,2,0,0,0,0,0,8,8,8,8,8,8,8,8,0,0,
 |0,2,2,0,1,4,4,4,4,0,0,0,0,0,3,0,5,0,
 |0,0,3,3,3,0,0,0,0,4,4,4,4,0,3,0,5,0,
 |0,0,0,0,0,8,8,8,8,8,8,8,8,8,3,0,5,0,
 |0,0,4,0,0,0,0,0,0,0,0,0,0,8,0,0,5,0,
 |7,0,4,0,0,0,0,0,0,0,0,0,0,8,1,0,5,0,
 |7,0,4,0,1,0,0,0,5,5,0,0,0,8,0,0,0,0,
 |7,0,4,1,7,0,0,0,5,5,0,0,0,8,0,0,0,0,
 |7,0,0,0,7,3,0,0,5,5,0,0,0,8,0,0,0,0,
 |7,0,0,0,7,3,0,0,5,5,0,0,0,8,0,0,0,0,
 |7,0,0,0,7,3,0,0,5,5,3,3,3,8,3,3,3,0,
 |7,0,0,0,7,0,2,2,0,2,2,0,0,3,3,3,0,0,
 |0,0,0,0,7,0,0,3,3,3,3,3,3,2,0,0,1,0,
 |0,0,0,0,7,0,0,0,0,0,0,0,0,2,0,0,0,0,
 |0,0,5,5,5,5,5,0,0,0,0,0,2,0,3,3,3,0,
 |0,0,4,4,4,4,4,4,4,4,0,0,2,0,0,0,0,0,
 |0,0,0,7,7,7,7,7,7,7,0,0,0,0,0,0,0,0,
 |0,0,0,0,7,7,7,7,7,7,7,0,0,0,0,0,0,0,
 |];

