Code/Walks/2nwalls18-8.txt
=====UNSATISFIABLE=====
% time elapsed: 1.69 s
